
List of user-set options:

                                    Name   Value                used
                        file_print_level = 5                     yes
                   hessian_approximation = limited-memory        yes
                           linear_solver = mumps                 yes
                                max_iter = 120                   yes
                      nlp_scaling_method = user-scaling          yes
                             output_file = /Users/marcello/Documents/zhaw/BAZL/DRACONIAN/Dymos/terrain_traj_v4_out/IPOPT.out  yes
                             print_level = 5                     yes
                      print_user_options = yes                   yes
                                      sb = yes                   yes
This is Ipopt version 3.14.19, running with linear solver MUMPS 5.8.2.

Number of nonzeros in equality constraint Jacobian...:     7614
Number of nonzeros in inequality constraint Jacobian.:     8955
Number of nonzeros in Lagrangian Hessian.............:        0

Total number of variables............................:      193
                     variables with only lower bounds:       15
                variables with lower and upper bounds:      122
                     variables with only upper bounds:        0
Total number of equality constraints.................:      147
Total number of inequality constraints...............:      135
        inequality constraints with only lower bounds:       45
   inequality constraints with lower and upper bounds:       45
        inequality constraints with only upper bounds:       45

iter    objective    inf_pr   inf_du lg(mu)  ||d||  lg(rg) alpha_du alpha_pr  ls
   0  5.0000000e+00 2.31e+01 1.06e+00   0.0 0.00e+00    -  0.00e+00 0.00e+00   0
   1  4.9544218e+00 1.96e+01 2.11e+00  -0.9 1.15e+01    -  6.72e-02 1.51e-01f  1
   2  5.0231554e+00 7.54e+00 1.11e+01  -1.2 9.91e+00    -  1.97e-01 6.73e-01f  1
   3  5.9482241e+00 7.95e+00 4.51e+02   0.6 2.31e+01    -  6.33e-02 4.00e-01f  1
   4  6.0163239e+00 1.14e+01 2.16e+02   0.5 1.57e+01    -  3.83e-01 5.95e-01f  1
   5  6.1995579e+00 1.11e-01 6.16e+01   0.5 1.20e+01    -  5.70e-01 7.07e-01f  1
   6  6.2857462e+00 1.41e+01 5.27e+00  -0.3 3.84e+00    -  9.62e-01 1.00e+00h  1
   7  6.1868402e+00 3.92e+00 1.39e+00  -1.4 1.14e+01    -  7.85e-01 7.93e-01h  1
   8  6.0259548e+00 4.12e-02 3.63e-01  -6.8 1.61e+00    -  8.83e-01 1.00e+00h  1
   9  5.7424851e+00 8.82e-02 2.33e-01  -2.0 1.92e+01    -  4.44e-01 1.00e+00f  1
iter    objective    inf_pr   inf_du lg(mu)  ||d||  lg(rg) alpha_du alpha_pr  ls
  10  4.6315119e+00 1.31e-01 5.65e-01  -1.3 2.01e+01    -  1.00e+00 6.95e-01H  1
  11  4.3489177e+00 1.11e-01 3.63e-01  -2.0 3.52e+00    -  8.18e-01 9.94e-01h  1
  12  4.2722796e+00 3.08e-01 9.33e-02  -2.4 2.18e+00    -  9.43e-01 9.75e-01h  1
  13  4.2458582e+00 1.77e-02 4.19e-02  -2.7 2.61e+00    -  1.00e+00 1.00e+00h  1
  14  4.2199795e+00 7.58e-02 1.04e-01  -3.5 2.72e+00    -  3.83e-01 1.00e+00h  1
  15  4.2142541e+00 3.37e-01 9.36e-02  -3.1 5.69e+00    -  1.00e+00 5.72e-01h  1
  16  4.2257080e+00 2.92e-02 1.84e-01  -2.8 4.24e+00    -  4.44e-01 1.00e+00h  1
  17  4.2077758e+00 1.66e-02 6.99e-02  -3.0 1.21e+01    -  6.93e-01 6.56e-01h  1
  18  4.1327375e+00 2.18e-01 1.42e-01  -2.6 3.30e+01    -  2.65e-01 1.00e+00h  1
  19  4.0922832e+00 4.50e+00 5.86e-02  -2.4 4.96e+01    -  7.00e-01 1.67e-01h  1
iter    objective    inf_pr   inf_du lg(mu)  ||d||  lg(rg) alpha_du alpha_pr  ls
  20  4.0462639e+00 1.44e+01 5.82e-02  -2.2 3.49e+01    -  4.44e-01 7.53e-01h  1
  21  4.2090760e+00 3.52e-01 6.41e-02  -2.0 8.18e+00    -  1.00e+00 1.00e+00h  1
  22  4.1049038e+00 7.94e+00 2.43e-02  -2.1 3.00e+00    -  1.00e+00 1.00e+00h  1
  23  4.0497331e+00 6.26e-02 2.25e-02  -2.4 1.56e+00    -  1.00e+00 1.00e+00h  1
  24  4.0107228e+00 5.71e-02 2.43e-02  -2.9 2.02e+00    -  9.92e-01 1.00e+00h  1
  25  4.0108304e+00 1.10e+01 5.63e-02  -2.5 5.07e+00    -  1.00e+00 1.00e+00h  1
  26  4.0062847e+00 2.17e+00 1.59e-02  -2.6 2.33e+00    -  1.00e+00 1.00e+00h  1
  27  3.9796113e+00 2.04e-01 1.16e-02  -3.3 1.77e+00    -  9.50e-01 1.00e+00h  1
  28  3.9887761e+00 2.46e-02 1.19e-02  -2.9 1.27e+00    -  1.00e+00 1.00e+00h  1
  29  3.9728659e+00 2.82e-02 3.99e-03  -3.4 1.43e+00    -  1.00e+00 9.77e-01h  1
iter    objective    inf_pr   inf_du lg(mu)  ||d||  lg(rg) alpha_du alpha_pr  ls
  30  3.9642467e+00 3.35e-02 1.43e-02  -3.9 1.88e+00    -  9.08e-01 1.00e+00h  1
  31  3.9658721e+00 3.40e-02 4.53e-03  -3.5 2.44e+00    -  1.00e+00 1.00e+00h  1
  32  3.9649455e+00 2.10e-02 1.33e-03  -3.6 2.06e+00    -  1.00e+00 1.00e+00h  1
  33  3.9612032e+00 7.27e-03 1.84e-03  -4.1 5.74e-01    -  1.00e+00 1.00e+00h  1
  34  3.9599193e+00 1.46e-02 1.89e-02  -5.2 6.17e-01    -  9.98e-01 1.00e+00h  1
  35  3.9593780e+00 2.53e-02 1.52e-03  -5.6 5.26e-01    -  1.00e+00 1.00e+00h  1
  36  3.9598733e+00 9.33e-03 4.95e-04  -6.2 9.10e-01    -  1.00e+00 1.00e+00h  1
  37  3.9598649e+00 3.29e-03 1.69e-04  -7.4 1.63e-01    -  1.00e+00 1.00e+00h  1
  38  3.9598643e+00 1.01e-02 2.01e-04  -8.2 9.87e-01    -  1.00e+00 1.00e+00h  1
  39  3.9598642e+00 8.74e-04 6.53e-05  -9.9 4.35e-02  -4.0 1.00e+00 1.00e+00h  1
iter    objective    inf_pr   inf_du lg(mu)  ||d||  lg(rg) alpha_du alpha_pr  ls
  40  3.9598642e+00 1.77e-02 1.15e-04 -10.4 1.67e+00    -  1.00e+00 1.00e+00h  1
  41  3.9598642e+00 2.17e-03 2.33e-05 -10.5 5.24e-02  -4.5 1.00e+00 1.00e+00h  1
  42  3.9598642e+00 1.30e-03 1.51e-05 -11.0 4.34e-01    -  1.00e+00 1.00e+00H  1
  43  3.9598642e+00 1.03e-05 1.60e-05 -11.0 3.44e-03  -5.0 1.00e+00 1.00e+00h  1
  44r 3.9598642e+00 1.03e-05 9.99e+02  -5.0 0.00e+00    -  0.00e+00 4.77e-07R 22
  45r 3.9598642e+00 2.45e-06 2.18e+02  -9.0 1.72e-02    -  7.86e-01 9.90e-04f  1
  46  3.9598642e+00 7.73e-05 3.77e-07 -11.0 1.20e-02    -  1.00e+00 1.00e+00s 22
  47  3.9598642e+00 3.47e-05 4.87e-07 -11.0 1.51e-02    -  1.00e+00 1.00e+00H  1
  48  3.9598642e+00 3.38e-07 3.01e-09 -11.0 1.22e-04  -5.4 1.00e+00 1.00e+00h  1
  49  3.9598642e+00 1.23e-08 1.89e-10 -11.0 8.41e-07  -5.9 1.00e+00 1.00e+00h  1
iter    objective    inf_pr   inf_du lg(mu)  ||d||  lg(rg) alpha_du alpha_pr  ls
  50  3.9598642e+00 3.53e-05 6.99e-09 -11.0 2.99e-03    -  1.00e+00 1.00e+00h  1
  51  3.9598642e+00 4.22e-09 2.33e-10 -11.0 1.34e-04  -5.5 1.00e+00 1.00e+00h  1

Number of Iterations....: 51

                                   (scaled)                 (unscaled)
Objective...............:   3.9598642287206847e+00    3.9598642287206847e+00
Dual infeasibility......:   2.3266415527246469e-10    2.3266415527246469e-10
Constraint violation....:   4.2157329989604197e-09    4.2157329989604197e-09
Variable bound violation:   3.7909626993126722e-08    3.7909626993126722e-08
Complementarity.........:   1.0000013383047622e-11    1.0000013383047622e-11
Overall NLP error.......:   4.2157329989604197e-09    4.2157329989604197e-09


Number of objective function evaluations             = 102
Number of objective gradient evaluations             = 52
Number of equality constraint evaluations            = 102
Number of inequality constraint evaluations          = 102
Number of equality constraint Jacobian evaluations   = 53
Number of inequality constraint Jacobian evaluations = 53
Number of Lagrangian Hessian evaluations             = 0
Total seconds in IPOPT                               = 14.606

EXIT: Optimal Solution Found.
